unsat
(:max-memory         18.33
 :memory             18.16
 :nlsat-conflicts    1
 :nlsat-propagations 4
 :nlsat-stages       1
 :num-allocs         22471
 :rlimit-count       8609
 :time               0.01
 :total-time         0.02)
